SCIP Status        : solving was interrupted [time limit reached]
Total Time         :    3600.01
  solving          :    3600.01
  presolving       :       0.21 (included in solving)
  reading          :       0.00
  copying          :       0.88 (49 #copies) (minimal 0.00, maximal 0.03, average 0.02)
Original Problem   :
  Problem name     : bbbenchmark/g05_60.9.cut
  Variables        : 61 (60 binary, 0 integer, 0 implicit integer, 1 continuous)
  Constraints      : 1 initial, 1 maximal
  Objective        : minimize, 1 non-zeros (abs.min = 1, abs.max = 1)
Presolved Problem  :
  Problem name     : t_bbbenchmark/g05_60.9.cut
  Variables        : 946 (60 binary, 0 integer, 885 implicit integer, 1 continuous)
  Constraints      : 886 initial, 6131 maximal
  Objective        : minimize, 1 non-zeros (abs.min = 1, abs.max = 1)
  Nonzeros         : 3601 constraint, 122 clique table
Presolvers         :   ExecTime  SetupTime  Calls  FixedVars   AggrVars   ChgTypes  ChgBounds   AddHoles    DelCons    AddCons   ChgSides   ChgCoefs
  boundshift       :       0.00       0.00      0          0          0          0          0          0          0          0          0          0
  convertinttobin  :       0.00       0.00      0          0          0          0          0          0          0          0          0          0
  domcol           :       0.00       0.00      1          0          0          0          0          0          0          0          0          0
  dualagg          :       0.00       0.00      0          0          0          0          0          0          0          0          0          0
  dualcomp         :       0.00       0.00      1          0          0          0          0          0          0          0          0          0
  dualinfer        :       0.00       0.00      0          0          0          0          0          0          0          0          0          0
  dualsparsify     :       0.00       0.00      1          0          0          0          0          0          0          0          0          0
  gateextraction   :       0.00       0.00      0          0          0          0          0          0          0          0          0          0
  implics          :       0.00       0.00      2          0          0          0          0          0          0          0          0          0
  inttobinary      :       0.00       0.00      0          0          0          0          0          0          0          0          0          0
  qpkktref         :       0.00       0.00      0          0          0          0          0          0          0          0          0          0
  redvub           :       0.00       0.00      0          0          0          0          0          0          0          0          0          0
  sparsify         :       0.00       0.00      1          0          0          0          0          0          0          0          0          0
  stuffing         :       0.00       0.00      0          0          0          0          0          0          0          0          0          0
  trivial          :       0.00       0.00      4          0          0          0          0          0          0          0          0          0
  tworowbnd        :       0.00       0.00      0          0          0          0          0          0          0          0          0          0
  dualfix          :       0.00       0.00      4          0          0          0          0          0          0          0          0          0
  genvbounds       :       0.00       0.00      0          0          0          0          0          0          0          0          0          0
  probing          :       0.11       0.00      1          0          0          0          0          0          0          0          0          0
  pseudoobj        :       0.00       0.00      1          0          0          0          1          0          0          0          0          0
  symmetry         :       0.00       0.00      0          0          0          0          0          0          0          0          0          0
  vbounds          :       0.00       0.00      1          0          0          0          0          0          0          0          0          0
  and              :       0.01       0.00      2          0          0          0          0          0          0          0          0          0
  linear           :       0.00       0.00      2          0          0          0          0          0          0          0          0          0
  logicor          :       0.00       0.00      0          0          0          0          0          0          0          0          0          0
  nonlinear        :       0.09       0.01      5          0          0          0          1          0          0        885          0          0
  benders          :       0.00       0.00      0          0          0          0          0          0          0          0          0          0
  components       :       0.00       0.00      1          0          0          0          0          0          0          0          0          0
  root node        :          -          -      -          0          -          -         48          -          -          -          -          -
Constraints        :     Number  MaxNumber  #Separate #Propagate    #EnfoLP    #EnfoRelax  #EnfoPS    #Check   #ResProp    Cutoffs    DomReds       Cuts    Applied      Conss   Children
  benderslp        :          0          0          0          0      77212          0          0       8910          0          0          0          0          0          0          0
  integral         :          0          0          0          0      77212          0          0       8910          0          0       7862          0          0       3813     150614
  and              :        885        885      85880     505110          8          0          0         35      92001         44    2847220       1006        895          0          0
  linear           :          1+         3        208     505066          8          0          0         33          0          0          0          0          0          0          0
  logicor          :          0+      5245          0     125308          0          0          0          0       1532        691        163          0          0          0          0
  benders          :          0          0          0          0          8          0          0         36          0          0          0          0          0          0          0
  countsols        :          0          0          0          0          8          0          0         36          0          0          0          0          0          0          0
  components       :          0          0          0          0          0          0          0          0          0          0          0          0          0          0          0
Constraint Timings :  TotalTime  SetupTime   Separate  Propagate     EnfoLP     EnfoPS     EnfoRelax   Check    ResProp    SB-Prop
  benderslp        :       0.09       0.00       0.00       0.00       0.07       0.00       0.00       0.02       0.00       0.00
  integral         :      50.58       0.00       0.00       0.00      50.53       0.00       0.00       0.05       0.00       0.00
  and              :      46.94       0.00      27.67      18.66       0.00       0.00       0.00       0.00       0.06       0.55
  linear           :       0.57       0.00       0.03       0.54       0.00       0.00       0.00       0.00       0.00       0.00
  logicor          :      12.83       0.00       0.00      12.77       0.00       0.00       0.00       0.00       0.01       0.05
  benders          :       0.00       0.00       0.00       0.00       0.00       0.00       0.00       0.00       0.00       0.00
  countsols        :       0.00       0.00       0.00       0.00       0.00       0.00       0.00       0.00       0.00       0.00
  components       :       0.12       0.00       0.00       0.12       0.00       0.00       0.00       0.00       0.00       0.00
Propagators        : #Propagate   #ResProp    Cutoffs    DomReds
  dualfix          :          4          0          0          0
  genvbounds       :          0          0          0          0
  nlobbt           :          0          0          0          0
  obbt             :          0          0          0          0
  probing          :          0          0          0          0
  pseudoobj        :     403608          0          0         49
  redcost          :     188851          0          0     376304
  rootredcost      :         21          0          0          0
  symmetry         :          0          0          0          0
  vbounds          :      37826          0          0          0
Propagator Timings :  TotalTime  SetupTime   Presolve  Propagate    ResProp    SB-Prop
  dualfix          :       0.00       0.00       0.00       0.00       0.00       0.00
  genvbounds       :       0.31       0.00       0.00       0.31       0.00       0.00
  nlobbt           :       0.00       0.00       0.00       0.00       0.00       0.00
  obbt             :       0.01       0.00       0.00       0.01       0.00       0.00
  probing          :       0.11       0.00       0.11       0.00       0.00       0.00
  pseudoobj        :       0.73       0.00       0.00       0.72       0.00       0.01
  redcost          :       6.71       0.00       0.00       6.71       0.00       0.00
  rootredcost      :       0.42       0.00       0.00       0.41       0.00       0.01
  symmetry         :       0.28       0.00       0.00       0.28       0.00       0.00
  vbounds          :       0.35       0.00       0.00       0.33       0.00       0.02
Conflict Analysis  :       Time      Calls    Success    DomReds  Conflicts   Literals    Reconvs ReconvLits   Dualrays   Nonzeros   LP Iters   (pool size: [10000,10000])
  propagation      :       0.01        735        457          -        535       26.2          0        0.0          -          -          -
  infeasible LP    :       0.00          0          0          -          0        0.0          0        0.0          4       45.2          0
  bound exceed. LP :      12.40       9314       7222          -      42179       33.1          9       22.7          0        0.0      52588
  strong branching :       0.00          0          0          -          0        0.0          0        0.0          -          -          0
  pseudo solution  :       0.00          0          0          -          0        0.0          0        0.0          -          -          -
  applied globally :       0.15          -          -          0      18303       33.0          -          -          4          -          -
  applied locally  :          -          -          -          0          0        0.0          -          -          0          -          -
Separators         :   ExecTime  SetupTime      Calls  RootCalls    Cutoffs    DomReds  FoundCuts ViaPoolAdd  DirectAdd    Applied ViaPoolApp  DirectApp      Conss
  cut pool         :       2.34          -      17370        239          -          -      20928     398128          -          -          -          -          -    (maximal pool size:       1181)
  aggregation      :      22.85       0.00       4629        208          0          0         18         18          0         12         12          0          0
  > cmir           :          -          -          -          -          -          -          -         18          0         12         12          0          -
  > flowcover      :          -          -          -          -          -          -          -          0          0          0          0          0          -
  > knapsackcover  :          -          -          -          -          -          -          -          0          0          0          0          0          -
  cgmip            :       0.00       0.00          0          0          0          0          0          0          0          0          0          0          0
  clique           :       0.00       0.00        208        208          0          0          0          0          0          0          0          0          0
  closecuts        :       0.00       0.00          0          0          0          0          0          0          0          0          0          0          0
  convexproj       :       0.00       0.00          0          0          0          0          0          0          0          0          0          0          0
  disjunctive      :       0.00       0.00          0          0          0          0          0          0          0          0          0          0          0
  eccuts           :       0.00       0.00          0          0          0          0          0          0          0          0          0          0          0
  gauge            :       0.00       0.00          0          0          0          0          0          0          0          0          0          0          0
  gomory           :       0.00       0.00          0          0          0          0          0          0          0          0          0          0          0
  > gomorymi       :          -          -          -          -          -          -          -          0          0          0          0          0          -
  > strongcg       :          -          -          -          -          -          -          -          0          0          0          0          0          -
  impliedbounds    :       0.06       0.00       4629        208          0          0          3          0          0          0          0          0          0
  interlattice     :       0.37       0.00        150        150          0          0        150          0        150        149          0        149          0
  interminor       :       0.00       0.00          0          0          0          0          0          0          0          0          0          0          0
  intersub         :       0.02       0.00          3          3          0          0          1          0          1          1          0          1          0
  intobj           :       0.00       0.00          0          0          0          0          0          0          0          0          0          0          0
  mcf              :       0.00       0.00          1          1          0          0          0          0          0          0          0          0          0
  minor            :       0.00       0.00          0          0          0          0          0          0          0          0          0          0          0
  mixing           :       0.01       0.00       4629        208          0          0          0          0          0          0          0          0          0
  oddcycle         :       0.00       0.00          0          0          0          0          0          0          0          0          0          0          0
  rapidlearning    :       0.02       0.00          0          0          0          0          0          0          0          0          0          0          0
  rlt              :       0.00       0.00         10         10          0          0          0          0          0          0          0          0          0
  zerohalf         :      20.47       0.00       3687         20          0          0      20907     398110          0      64829      64829          0          0
Cutselectors       :   ExecTime  SetupTime      Calls  RootCalls   Selected     Forced   Filtered  RootSelec   RootForc   RootFilt 
  hybrid           :       0.25       0.00      10402        206      65886          0     333399        354          0         16
Pricers            :   ExecTime  SetupTime      Calls       Vars
  problem variables:       0.00          -          0          0
Branching Rules    :   ExecTime  SetupTime   BranchLP  BranchExt   BranchPS    Cutoffs    DomReds       Cuts      Conss   Children
  allfullstrong    :       0.00       0.00          0          0          0          0          0          0          0          0
  cloud            :       0.00       0.00          0          0          0          0          0          0          0          0
  distribution     :       0.00       0.00          0          0          0          0          0          0          0          0
  fullstrong       :       0.00       0.00          0          0          0          0          0          0          0          0
  inference        :       0.00       0.00          0          0          0          0          0          0          0          0
  leastinf         :       0.00       0.00          0          0          0          0          0          0          0          0
  lookahead        :       0.00       0.00          0          0          0          0          0          0          0          0
  mostinf          :       0.00       0.00          0          0          0          0          0          0          0          0
  multaggr         :       0.00       0.00          0          0          0          0          0          0          0          0
  nodereopt        :       0.00       0.00          0          0          0          0          0          0          0          0
  pscost           :       0.00       0.00          0          0          0          0          0          0          0          0
  random           :       0.00       0.00          0          0          0          0          0          0          0          0
  relpscost        :      50.35       0.00      77204          0          0          0       7862          0       3826     150614
  vanillafullstrong:       0.00       0.00          0          0          0          0          0          0          0          0
Primal Heuristics  :   ExecTime  SetupTime      Calls      Found       Best
  LP solutions     :       0.01          -          -          8          8
  relax solutions  :       0.00          -          -          0          0
  pseudo solutions :       0.00          -          -          0          0
  strong branching :       0.02          -          -          0          0
  actconsdiving    :       0.00       0.00          0          0          0
  adaptivediving   :       8.58       0.00        326          1          1
  alns             :       2.92       0.00         31          6          6
  bound            :       0.00       0.00          0          0          0
  clique           :       0.00       0.00          1          0          0
  coefdiving       :       0.00       0.00          0          0          0
  completesol      :       0.00       0.00          0          0          0
  conflictdiving   :       8.66       0.00        326          0          0
  crossover        :       0.05       0.00          1          1          1
  dins             :       0.00       0.00          0          0          0
  distributiondivin:      19.02       0.00        326          0          0
  dps              :       0.00       0.00          0          0          0
  dualval          :       0.00       0.00          0          0          0
  farkasdiving     :       0.00       0.00          0          0          0
  feaspump         :       0.02       0.00          0          0          0
  fixandinfer      :       0.00       0.00          0          0          0
  fracdiving       :      10.72       0.00        327          1          1
  gins             :       0.04       0.00          0          0          0
  guideddiving     :       9.58       0.00        327          0          0
  indicator        :       0.08       0.00          0          0          0
  indicatordiving  :       0.00       0.00          0          0          0
  intdiving        :       0.00       0.00          0          0          0
  intshifting      :       0.05       0.00         20          0          0
  linesearchdiving :       9.63       0.00        326          0          0
  localbranching   :       0.00       0.00          0          0          0
  locks            :       0.01       0.00          1          0          0
  lpface           :       0.12       0.00          0          0          0
  mpec             :       0.96       0.00          1          0          0
  multistart       :       0.00       0.00          0          0          0
  mutation         :       0.00       0.00          0          0          0
  nlpdiving        :       2.16       0.00          9          0          0
  objpscostdiving  :      41.60       0.00        123          6          2
  octane           :       0.00       0.00          0          0          0
  ofins            :       0.09       0.00          0          0          0
  oneopt           :       0.20       0.00         31          0          0
  padm             :       0.00       0.00          0          0          0
  proximity        :       0.00       0.00          0          0          0
  pscostdiving     :      11.41       0.00        326          2          2
  randrounding     :       0.82       0.00       8870          0          0
  rens             :       0.00       0.00          0          0          0
  reoptsols        :       0.00       0.00          0          0          0
  repair           :       0.00       0.00          0          0          0
  rins             :       3.18       0.00         17          0          0
  rootsoldiving    :      18.94       0.00         68          5          0
  rounding         :       0.60       0.00       4076          0          0
  shiftandpropagate:       0.00       0.00          0          0          0
  shifting         :      23.23       0.00      11875          9          9
  simplerounding   :       0.12       0.00          0          0          0
  subnlp           :      73.16       0.00          0          0          0
  trivial          :       0.00       0.00          2          2          2
  trivialnegation  :       0.00       0.00          0          0          0
  trustregion      :       0.00       0.00          0          0          0
  trysol           :       0.12       0.00          0          0          0
  twoopt           :       0.00       0.00          0          0          0
  undercover       :       0.13       0.00          1          0          0
  vbounds          :       0.00       0.00          0          0          0
  veclendiving     :       5.12       0.00        326          0          0
  zeroobj          :       0.00       0.00          0          0          0
  zirounding       :       0.22       0.00       1000          0          0
  other solutions  :          -          -          -          0          -
Diving (single)    :      Calls      Nodes   LP Iters Backtracks  Conflicts   MinDepth   MaxDepth   AvgDepth  RoundSols  NLeafSols  MinSolDpt  MaxSolDpt  AvgSolDpt
  actconsdiving    :          0          -          -          -          -          -          -          -          -          -          -          -          -
  coefdiving       :          0          -          -          -          -          -          -          -          -          -          -          -          -
  conflictdiving   :        326       5628      80711        371       4738         22         46       31.2          0          -          -          -          -
  distributiondivin:        326       4077     123962        487       3820         20         42       25.9          0          -          -          -          -
  farkasdiving     :          0          -          -          -          -          -          -          -          -          -          -          -          -
  fracdiving       :        327      36302      99869        258       1466         27        272      125.2          0          1         39         39       39.0
  guideddiving     :        327      32362      92269        169       1206         30        191      113.6          0          -          -          -          -
  indicatordiving  :          0          -          -          -          -          -          -          -          -          -          -          -          -
  linesearchdiving :        326       8858      99134        364       5303         25         61       41.0          0          -          -          -          -
  pscostdiving     :        326       5824     119459        332       4669         22         46       31.9          0          2         39         46       42.5
  veclendiving     :        326       5925      35537        329       5339         20         43       32.1          0          -          -          -          -
Diving (adaptive)  :      Calls      Nodes   LP Iters Backtracks  Conflicts   MinDepth   MaxDepth   AvgDepth  RoundSols  NLeafSols  MinSolDpt  MaxSolDpt  AvgSolDpt
  actconsdiving    :         33        440      15250         63        378         20         34       26.1          0          -          -          -          -
  coefdiving       :         87       1552      11489         89       1430         27         40       31.5          0          -          -          -          -
  conflictdiving   :          0          -          -          -          -          -          -          -          -          -          -          -          -
  distributiondivin:          0          -          -          -          -          -          -          -          -          -          -          -          -
  farkasdiving     :          0          -          -          -          -          -          -          -          -          -          -          -          -
  fracdiving       :         17       1809       5196         18        117         29        178      120.2          0          -          -          -          -
  guideddiving     :         31       2861      10747         12        108         43        161      105.8          0          -          -          -          -
  indicatordiving  :          0          -          -          -          -          -          -          -          -          -          -          -          -
  linesearchdiving :         44       1210      13736         41        629         26         50       41.3          0          1         49         49       49.0
  pscostdiving     :         47        806      16354         48        774         23         44       31.4          0          -          -          -          -
  veclendiving     :         67       1181       4198         67        896         27         39       31.9          0          -          -          -          -
Neighborhoods      :      Calls  SetupTime  SolveTime SolveNodes       Sols       Best       Exp3  EpsGreedy        UCB TgtFixRate  Opt  Inf Node Stal  Sol  Usr Othr Actv
  rens             :          2       0.04       0.02          1          0          0    0.00000   -1.00000    0.55158      0.550    0    2    0    0    0    0    0    1
  rins             :          2       0.01       0.00          0          0          0    0.00000   -1.00000    0.30266      0.700    0    1    0    0    0    0    1    1
  mutation         :          6       0.19       0.40        194          2          2    0.00000   -1.00000    0.52317      0.506    2    2    0    2    0    0    0    1
  localbranching   :          2       0.07       0.00          1          0          0    0.00000   -1.00000    0.55158      0.550    0    2    0    0    0    0    0    1
  crossover        :          5       0.18       0.36        129          1          1    0.00000   -1.00000    0.50713      0.585    1    2    0    2    0    0    0    1
  proximity        :          6       0.26       0.45        114          1          1    0.00000   -1.00000    0.52527      0.467    1    4    0    1    0    0    0    1
  zeroobjective    :          4       0.13       0.30        101          1          1    0.00000   -1.00000    0.52508      0.522    1    2    0    1    0    0    0    1
  dins             :          4       0.11       0.17         91          1          1    0.00000   -1.00000    0.53188      0.522    1    2    0    1    0    0    0    1
  trustregion      :          0       0.00       0.00          0          0          0    0.00000   -1.00000    1.00000      0.900    0    0    0    0    0    0    0    0
Expressions        :   #IntEval  IntEvalTi   #RevProp  RevPropTi    DomReds    Cutoffs  #Estimate  EstimTime  Branching  #Simplify SimplifyTi Simplified
  pow              :          0       0.00          0       0.00          0          0          0       0.00          0          0       0.00          0
  prod             :       3540       0.01          0       0.00          0          0          0       0.00          0       2655       0.01          0
  sum              :          8       0.00          2       0.00          0          0          0       0.00          0          3       0.00          2
  var              :       3327       0.00          0       0.00          0          0          0       0.00          0       6378       0.00          0
  varidx           :          0       0.00          0       0.00          0          0          0       0.00          0          0       0.00          0
LP                 :       Time      Calls Iterations  Iter/call   Iter/sec  Time-0-It Calls-0-It    ItLimit
  primal LP        :     159.39      14562          0       0.00       0.00     159.23      14562
  dual LP          :    2906.48     179718   20565897     132.12    7075.88       7.50      24060
  lex dual LP      :       0.00          0          0       0.00          -
  barrier LP       :       0.00          0          0       0.00          -       0.00          0
  resolve instable :       0.00          0          0       0.00          -
  diving/probing LP:     115.50       9956    1232554     123.80   10671.46
  strong branching :      31.46       4440     380470      85.69   12093.77          -          -        301
    (at root node) :          -         20       8852     442.60          -
  conflict analysis:       6.73       5273      52588       9.97    7813.97
NLP relaxation     :
  solve time       :       2.16 (9 calls)
  convexity        :  nonconvex (1 linear rows, 0 convex ineq., 0 nonconvex ineq., 885 nonlinear eq. or two-sided ineq.)
NLP Solvers        :  #Problems  ProblemTi    #Solves  SolveTime      #Iter  Time/Iter      #Okay #TimeLimit #IterLimit #LObjLimit #Interrupt  #NumError #EvalError  #OutOfMem #LicenseEr #OtherTerm   #GlobOpt    #LocOpt  #Feasible #LocInfeas #GlobInfea #Unbounded   #Unknown
  ipopt            :          2       4.82         12       3.12        345       0.01         11          0          1          0          0          0          0          0          0          0          0          0          0          3          0          0          9
B&B Tree           :
  number of runs   :          1
  nodes            :     143526 (75307 internal, 68219 leaves)
  feasible leaves  :          8
  infeas. leaves   :        167
  objective leaves :      68043
  nodes (total)    :     143526 (75307 internal, 68219 leaves)
  nodes left       :       7047
  max depth        :         34
  max depth (total):         34
  backtracks       :      37056 (25.8%)
  early backtracks :          0 (0.0%)
  nodes exc. ref.  :          0 (0.0%)
  delayed cutoffs  :          1
  repropagations   :        364 (358 domain reductions, 0 cutoffs)
  avg switch length:       4.27
  switching time   :     185.61
Estim. Tree Size   :     648143
Estimation Tree    : 150615 nodes (143568 visited, 75307 internal, 68261 leaves, 7047 open), weight: 0.1929 completed 0.4623
Estimations        :      estim      value      trend resolution     smooth
  wbe              :     707673          -          -          -          -
  tree-profile     :         -1          -          -          -          -
  gap              :     485306    0.92294    0.00006        128     496581
  tree-weight      :     648143    0.19292    0.00040        128     657382
  leaf-frequency   :     825511    0.47546    0.00001        128     779182
  ssg              :     485794    0.38178   -0.00028        128     483704
  open-nodes       :     287136 7047.00000    0.84770        128     482227
Root Node          :
  First LP value   : -1.00000000000000e+00
  First LP Iters   :        638 (21266.67 Iter/sec)
  First LP Time    :       0.03
  Final Dual Bound : -8.72077171547675e-01
  Final Root Iters :       5950
  Root LP Estimate : -5.30032367284391e-01
Solution           :
  Solutions found  :         41 (32 improvements)
  First Solution   : +1.00000000000000e+05   (in run 1, after 0 nodes, 0.05 seconds, depth 0, found by <trivial>)
  Gap First Sol.   :   infinite
  Gap Last Sol.    :      22.23 %
  Primal Bound     : -6.02259887005650e-01   (in run 1, after 19167 nodes, 242.49 seconds, depth 28, found by <relaxation>)
  Dual Bound       : -6.52542372881356e-01
  Gap              :       8.35 %
Integrals          :      Total       Avg%
  primal-dual      :   43576.77      12.10
  primal-ref       :          -          - (not evaluated)
  dual-ref         :          -          - (not evaluated)
